p cnf 36 240
10 -6 -8 -9 7 0
11 13 -14 -15 -12 0
7 -10 6 -9 8 0
2 1 -5 4 3 0
-18 -20 -16 19 -17 0
34 36 31 -33 -35 0
12 -13 -11 -14 15 0
-21 -24 25 22 -23 0
-11 -13 -14 -15 12 0
-36 -31 35 -33 34 0
26 27 -29 -30 -28 0
7 -6 -9 10 8 0
33 36 -34 -35 31 0
-8 -6 7 9 -10 0
30 -28 27 -29 -26 0
-23 24 -22 -25 21 0
35 31 -36 -34 33 0
28 -26 27 -29 30 0
15 -13 14 -12 -11 0
-5 2 -4 -3 1 0
-33 32 34 -35 -36 0
-29 -23 -14 -20 33 0
-18 -16 17 -19 -20 0
5 4 -1 -2 -3 0
29 -28 -30 26 27 0
-19 18 -20 -17 -16 0
-7 9 10 -6 8 0
-2 -4 5 -1 3 0
-35 32 33 31 34 0
-22 -21 -24 -23 25 0
-30 29 -28 -26 27 0
-11 -14 -12 13 15 0
-16 20 -18 17 19 0
23 -25 -21 22 24 0
5 2 -3 1 4 0
-13 -15 14 -12 11 0
10 9 8 -7 6 0
14 12 15 -11 13 0
-5 4 -2 1 -3 0
-24 21 22 23 25 0
-9 -10 -6 -7 8 0
-33 31 32 -35 36 0
29 -30 -27 28 26 0
-13 -10 -34 20 -21 0
6 -8 -10 -7 -9 0
-32 -36 -35 31 34 0
35 32 -36 33 -34 0
13 11 14 -12 -15 0
-29 30 -27 -28 26 0
17 -16 -20 -19 18 0
-1 3 5 2 -4 0
-17 18 -16 19 20 0
17 19 -20 16 -18 0
-10 6 7 -8 -9 0
32 -35 31 -33 -34 0
9 -10 6 8 7 0
-17 -20 -18 -19 -16 0
-10 7 8 -6 -9 0
-8 -9 10 -7 -6 0
28 -26 -27 29 30 0
-8 6 9 10 -7 0
-16 -20 17 -18 19 0
20 -16 17 18 19 0
23 -25 -21 -24 22 0
16 -23 10 -29 -1 0
-17 16 20 19 -18 0
21 22 25 -23 -24 0
13 12 14 -15 11 0
30 -28 29 -27 26 0
-2 4 -1 -5 3 0
29 -26 28 27 30 0
-32 -31 -35 -36 -33 0
16 -17 18 -19 20 0
23 22 25 -21 24 0
15 -13 -14 12 11 0
-28 -29 -27 26 -30 0
21 -24 -23 -22 -25 0
-14 -12 -13 15 11 0
10 7 9 6 -8 0
-17 19 16 20 18 0
-7 -9 6 8 10 0
-34 31 -36 33 -35 0
-23 22 -21 -25 -24 0
-4 -3 1 -2 -5 0
8 7 6 9 10 0
-25 23 -22 24 21 0
26 29 28 27 -30 0
-2 -3 -4 -5 -1 0
1 5 3 4 2 0
-30 -27 -28 -26 29 0
-34 -31 -33 35 36 0
-12 15 13 11 -14 0
18 -17 -20 -16 19 0
3 5 2 -1 4 0
15 14 11 -13 12 0
9 6 -10 -8 -7 0
35 -31 -32 36 -33 0
-14 11 12 -15 13 0
30 27 26 29 -28 0
-34 -36 -31 32 -35 0
-20 16 17 -19 18 0
8 9 7 -10 -6 0
-29 -26 -27 -28 -30 0
-4 -2 5 1 3 0
19 16 18 -17 -20 0
-35 -36 34 -32 -31 0
-10 6 -7 -9 8 0
10 -9 8 6 7 0
32 33 -31 35 -36 0
-22 -25 -21 -23 -24 0
3 -2 -4 -5 -1 0
-17 -19 -18 16 -20 0
24 -23 -22 -21 25 0
-22 -21 23 24 -25 0
19 -16 20 -18 -17 0
13 14 -12 -11 15 0
24 22 25 -23 -21 0
10 7 6 -8 -9 0
-36 -32 -31 33 -34 0
10 9 -7 -6 -8 0
-34 36 32 -33 35 0
-22 25 24 21 23 0
-34 -35 36 33 -31 0
-34 -31 36 -33 32 0
30 26 -29 28 27 0
-15 12 -14 -11 13 0
-12 13 -11 14 -15 0
-34 -36 -33 -32 -31 0
10 20 29 -1 -11 0
23 22 -24 21 -25 0
-26 28 29 -30 27 0
-3 -4 -2 5 1 0
28 -9 24 -35 13 0
-15 -14 13 -12 -11 0
-35 -36 31 -33 -34 0
34 31 36 -35 33 0
15 13 12 -14 -11 0
-28 27 -26 30 29 0
-13 14 -12 -15 -11 0
2 1 -4 3 5 0
-24 -25 -21 -22 23 0
-1 -3 2 -4 5 0
-36 -35 32 33 31 0
-33 34 -32 -35 31 0
29 -30 -27 26 -28 0
-27 28 30 -29 -26 0
-20 -26 11 25 -10 0
-32 -35 34 -33 -31 0
-15 -13 -12 -14 -11 0
-34 31 -33 35 36 0
-14 -15 11 -12 -13 0
6 9 -10 -7 8 0
-30 28 -27 -29 26 0
-7 -6 -9 -10 -8 0
35 -34 -33 -36 -32 0
8 -7 9 -6 -10 0
-21 -24 25 23 22 0
14 -13 -11 12 -15 0
-32 36 31 -34 -35 0
26 -29 28 27 -30 0
32 31 -36 33 -34 0
1 3 4 -5 -2 0
17 20 -18 -19 -16 0
2 -5 3 4 -1 0
-36 35 31 -32 -33 0
24 -21 -22 -25 -23 0
21 -22 25 23 -24 0
24 25 23 -21 -22 0
-14 11 12 -15 -13 0
5 4 3 -2 -1 0
31 -33 36 34 35 0
-26 -30 28 29 -27 0
33 32 -36 -35 -34 0
-19 -17 18 20 -16 0
-6 -8 10 9 7 0
-36 32 -35 31 -33 0
-3 -1 5 4 2 0
-3 -4 -2 -1 5 0
-34 33 -35 -36 -31 0
-6 -8 -7 -10 9 0
-31 36 -35 34 33 0
-35 33 36 32 -34 0
-7 -9 10 6 -8 0
35 31 36 -32 -34 0
36 -34 31 33 35 0
33 -32 34 36 35 0
15 -12 -13 -11 -14 0
-36 -33 32 -35 -31 0
-18 20 -19 -16 -17 0
35 -36 34 32 31 0
33 32 35 -36 31 0
32 31 -33 -36 -34 0
-36 -32 33 -35 34 0
31 -32 -34 36 33 0
30 -26 -27 29 -28 0
-9 -7 10 -6 8 0
15 13 -12 14 11 0
-31 -33 35 34 36 0
-4 -1 -3 2 -5 0
-5 -4 3 1 2 0
-22 31 7 -14 30 0
33 -35 36 32 -31 0
-27 -29 30 26 28 0
23 25 -21 -24 -22 0
28 27 29 30 26 0
3 -4 -5 1 -2 0
-33 -34 -32 -35 -36 0
32 35 -31 -36 -33 0
-31 33 -32 -34 -35 0
33 -32 -35 -31 -36 0
-5 1 -3 2 4 0
-31 35 -36 -32 -33 0
20 19 16 -18 17 0
34 -32 33 -35 36 0
-32 35 -36 34 -33 0
36 34 -32 31 35 0
5 4 -2 1 3 0
-29 30 -27 -28 -26 0
34 -31 -33 -35 -36 0
-5 3 2 -4 -1 0
8 -6 7 9 10 0
-23 24 22 25 21 0
-20 -19 -17 18 16 0
-31 36 34 35 33 0
-32 31 -36 -34 -35 0
33 36 34 35 32 0
34 -31 -35 -36 33 0
26 -1 -9 -33 -17 0
-26 -30 28 -27 -29 0
-23 -22 25 -24 21 0
1 2 -4 -3 5 0
27 26 -28 -29 30 0
31 -32 -36 -34 33 0
4 -5 -1 -3 -2 0
-35 33 -32 -31 36 0
15 13 11 12 -14 0
27 -28 -26 -29 -30 0
31 35 34 36 32 0
-11 15 14 12 -13 0
-23 24 21 -25 22 0
